\ENCODING=ISO-8859-1
\Problem name: IloCplex

Minimize
 obj: 800 y_0 + 800 y_1 + 800 y_2 + 800 y_3 + 800 y_4 + 800 y_5 + 800 y_6
      + 800 y_7 + 800 y_8 + 800 y_9 + 800 y_10 + 800 y_11 + 800 y_12 + 800 y_13
      + 800 y_14 + 800 y_15 + 800 y_16 + 800 y_17 + 800 y_18 + 800 y_19
      + 800 y_20 + 800 y_21 + 800 y_22 + 800 y_23 + 800 y_24 + 800 y_25
      + 800 y_26 + 800 y_27 + 800 y_28 + 800 y_29 + 800 y_30 + 800 y_31
      + 800 y_32 + 800 y_33 + 800 y_34 + 800 y_35 + 800 y_36 + 800 y_37
      + 800 y_38 + 800 y_39 + 800 y_40 + 800 y_41 + 800 y_42 + 800 y_43
      + 800 y_44 + 800 y_45 + 800 y_46 + 800 y_47 + 800 y_48 + 800 y_49
      + 800 y_50 + 800 y_51 + 800 y_52 + 800 y_53 + 800 y_54 + 800 y_55
      + 800 y_56 + 800 y_57 + 800 y_58 + 800 y_59 + 800 y_60 + 800 y_61
      + 800 y_62 + 800 y_63 + 800 y_64 + 800 y_65 + 800 y_66 + 800 y_67
      + 800 y_68 + 800 y_69 + 800 y_70 + 800 y_71 + 800 y_72 + 800 y_73
      + 800 y_74 + 800 y_75 + 800 y_76 + 800 y_77 + 800 y_78 + 800 y_79
      + 800 y_80 + 800 y_81 + 800 y_82 + 800 y_83 + 800 y_84 + 800 y_85
      + 800 y_86 + 800 y_87 + 800 y_88 + 800 y_89 + 800 y_90 + 800 y_91
      + 800 y_92 + 800 y_93 + 800 y_94 + 4 x_8 + 4 x_9 + 8 x_10 + 8 x_11
      + 304 x_12 + 10 x_14 + 606 x_15 + 601 x_16 + 162 x_17 + 162 x_18
      + 154 x_19 + 1159 x_20 + 958 x_21 + 958 x_22 + 911 x_23 + 911 x_24
      + 1961 x_25 + 1961 x_26 + 11 x_27 + 11 x_28 + 8 x_29 + 8 x_30 + 604 x_31
      + 1205 x_32 + 1129 x_33 + 535 x_34 + 1138 x_35 + 610 x_36 + 1210 x_37
      + 1046 x_38 + 1290 x_39 + 198 x_40 + 1130 x_41 + 449 x_42 + 1756 x_43
      + 1305 x_44 + 1054 x_45 + 885 x_46 + 1059 x_47 + 1059 x_48 + 1291 x_49
      + 199 x_50 + 606 x_51 + 1206 x_52 + 1406 x_53 + 4 x_54 + 1018 x_55
      + 266 x_56 + x_57 + 1408 x_58 + 4 x_59 + 1108 x_60 + 1101 x_61
      + 1600 x_62 + 58 x_63 + 896 x_64 + 56 x_65 + 1006 x_66 + 1006 x_67
      + 267 x_68 + 268 x_69 + 1059 x_70 + 1056 x_71 + 1671 x_72 + 269 x_73
      + 1598 x_74 + 58 x_75 + 4 x_76 + 2178 x_77 + 946 x_78 + 946 x_79
      + 1185 x_80 + 4 x_81 + 736 x_82 + 1236 x_83 + 606 x_84 + 606 x_85
      + 6 x_86 + 6 x_87 + 387 x_88 + 387 x_89 + 356 x_90 + 356 x_91 + 86 x_92
      + 86 x_93 + 2096 x_94 + 2126 x_95 + 7 x_96 + 7 x_97 + 194 x_98
      + 1238 x_99 + 397 x_100 + 647 x_101 + 1579 x_102 + 1579 x_103 + 800 x_104
      + 308 x_105 + 8 x_106 + 255 x_107 + 1358 x_108 + 1358 x_109 + 310 x_110
      + 560 x_111 + 1258 x_112 + 1258 x_113 + 1804 x_114 + 6 x_115 + 658 x_116
      + 828 x_117 + 1136 x_118 + 1306 x_119 + 579 x_120 + 829 x_121 + 6 x_122
      + 258 x_123 + 56 x_124 + 906 x_125 + 5 x_126 + 5 x_127 + 1276 x_128
      + 956 x_129 + 1806 x_130 + 1202 x_131 + 1326 x_132 + 458 x_133
      + 1276 x_134 + 1276 x_135 + 3 x_136 + 3 x_137 + 807 x_138 + 807 x_139
      + 2459 x_140 + 2206 x_141 + 57 x_142 + 57 x_143 + 108 x_144 + 958 x_145
      + 3 x_146 + 305 x_147 + 337 x_148 + 334 x_149 + 336 x_150 + 4 x_151
      + 306 x_152 + 604 x_153 + 6 x_154 + 303 x_155 + 338 x_156 + 5 x_157
      + 1176 x_158 + 404 x_159 + 557 x_160 + 607 x_161 + 1607 x_162
      + 1057 x_163 + 7 x_164 + 307 x_165 + 6 x_166 + 306 x_167 + 604 x_168
      + 6 x_169 + 1446 x_170 + 5 x_171 + 7 x_172 + 5 x_173 + 604 x_174
      + 254 x_175 + 5 x_176 + 1447 x_177 + 6 x_178 + 255 x_179 + 5 x_180
      + 1004 x_181 + 1444 x_182 + 2057 x_183 + 1055 x_184 + 255 x_185 + 5 x_186
      + 756 x_187 + 1006 x_188
Subject To
 cover_lg_0:   y_0 + x_0 + x_8 + x_9 + x_31 + x_32 + x_53 + x_54 + x_76 + x_77
               + x_100 + x_101 + x_124 + x_125 + x_168 + x_169  = 1
 cover_lg_1:   y_1 + x_0 + x_8 + x_9 + x_31 + x_32 + x_53 + x_54 + x_76 + x_77
               + x_78 + x_79 + x_80 + x_86 + x_87 + x_88 + x_89 + x_92 + x_93
               + x_96 + x_97 + x_124 + x_125 + x_126 + x_138 + x_142 + x_169
                = 1
 cover_lg_2:   y_2 + x_0 + x_8 + x_9 + x_31 + x_32 + x_53 + x_54 + x_67 + x_76
               + x_86 + x_89 + x_93 + x_96 + x_115  = 1
 cover_lg_3:   y_3 + x_0 + x_8 + x_9 + x_31 + x_32 + x_53 + x_54 + x_67 + x_76
               + x_86 + x_89 + x_93 + x_96 + x_115  = 1
 cover_lg_4:   y_4 + x_0 + x_8 + x_9 + x_31 + x_32 + x_33 + x_35 + x_36 + x_37
               + x_38 + x_39 + x_41 + x_43 + x_49 + x_51 + x_52 + x_158 + x_168
               + x_170 + x_171 + x_175 + x_176 + x_177 + x_178 + x_179 + x_181
               + x_182 + x_183 + x_185 + x_186 + x_187  = 1
 cover_lg_5:   y_5 + x_0 + x_8 + x_9 + x_31 + x_33 + x_35 + x_36 + x_38 + x_39
               + x_41 + x_43 + x_49 + x_51 + x_168 + x_170 + x_171 + x_175
               + x_176 + x_177 + x_178 + x_179 + x_181 + x_182 + x_183 + x_185
               + x_186 + x_187  = 1
 cover_lg_6:   y_6 + x_0 + x_133 + x_146 + x_151 + x_154 + x_160 + x_162
               + x_164 + x_166  = 1
 cover_lg_7:   y_7 + x_0 + x_133 + x_146 + x_151 + x_154 + x_160 + x_162
               + x_164 + x_166  = 1
 cover_lg_8:   y_8 + x_1 + x_10 + x_11 + x_23 + x_24 + x_27 + x_28 + x_55
               + x_56 + x_68 + x_69 + x_72 + x_73  = 1
 cover_lg_9:   y_9 + x_1 + x_40 + x_42 + x_50 + x_77 + x_78 + x_79 + x_80
               + x_82 + x_83 + x_84 + x_85 + x_90 + x_91 + x_94 + x_99 + x_128
               + x_132 + x_134 + x_135  = 1
 cover_lg_10:  y_10 + x_1 + x_40 + x_42 + x_50 + x_61  = 1
 cover_lg_11:  y_11 + x_1  = 1
 cover_lg_12:  y_12 + x_1  = 1
 cover_lg_13:  y_13 + x_1 + x_10 + x_11 + x_33 + x_55 + x_56 + x_78 + x_79
               + x_102 + x_103 + x_126 + x_127 + x_148 + x_170  = 1
 cover_lg_14:  y_14 + x_2 + x_57 + x_81  = 1
 cover_lg_15:  y_15 + x_2 + x_57 + x_81 + x_172 + x_173  = 1
 cover_lg_16:  y_16 + x_2 + x_12 + x_14 + x_15 + x_20 + x_26 + x_57 + x_172
               + x_180  = 1
 cover_lg_17:  y_17 + x_2 + x_12 + x_14 + x_15 + x_20 + x_26 + x_57 + x_77
               + x_78 + x_79 + x_80 + x_82 + x_83 + x_84 + x_85 + x_90 + x_91
               + x_94 + x_99 + x_172 + x_180  = 1
 cover_lg_18:  y_18 + x_2 + x_12 + x_14 + x_15 + x_20 + x_26 + x_57 + x_77
               + x_78 + x_79 + x_80 + x_82 + x_83 + x_84 + x_85 + x_90 + x_91
               + x_94 + x_99 + x_172 + x_180  = 1
 cover_lg_19:  y_19 + x_2 + x_12 + x_14 + x_15 + x_20 + x_26 + x_77 + x_78
               + x_79 + x_80 + x_82 + x_83 + x_84 + x_85 + x_90 + x_91 + x_94
               + x_99 + x_172 + x_180  = 1
 cover_lg_20:  y_20 + x_2 + x_12 + x_14 + x_20 + x_26 + x_31 + x_32 + x_35
               + x_36 + x_37 + x_39 + x_43 + x_49 + x_50 + x_51 + x_52 + x_128
               + x_141 + x_148 + x_150 + x_153 + x_156 + x_158  = 1
 cover_lg_21:  y_21 + x_2 + x_12 + x_14 + x_20 + x_26 + x_31 + x_32 + x_35
               + x_36 + x_37 + x_39 + x_43 + x_49 + x_50 + x_51 + x_52 + x_128
               + x_141 + x_148 + x_150 + x_153 + x_156 + x_158  = 1
 cover_lg_22:  y_22 + x_2 + x_12 + x_35 + x_57 + x_80 + x_81 + x_104 + x_105
               + x_128 + x_150 + x_171  = 1
 cover_lg_23:  y_23 + x_3 + x_13 + x_14 + x_36 + x_37 + x_58 + x_59 + x_82
               + x_83 + x_106 + x_107 + x_129 + x_130 + x_151 + x_152  = 1
 cover_lg_24:  y_24 + x_3 + x_10 + x_11 + x_12 + x_13 + x_17 + x_18 + x_19
               + x_20 + x_21 + x_22 + x_23 + x_24 + x_27 + x_28 + x_29 + x_30
               + x_102 + x_103 + x_104 + x_105 + x_110 + x_111 + x_112 + x_113
               + x_114 + x_116 + x_117 + x_120 + x_121 + x_148 + x_149 + x_150
               + x_153 + x_156 + x_163  = 1
 cover_lg_25:  y_25 + x_3 + x_10 + x_11 + x_12 + x_13 + x_17 + x_18 + x_19
               + x_20 + x_21 + x_22 + x_23 + x_24 + x_27 + x_28 + x_29 + x_30
               + x_102 + x_103 + x_104 + x_105 + x_110 + x_111 + x_112 + x_113
               + x_114 + x_116 + x_117 + x_120 + x_121 + x_148 + x_149 + x_150
               + x_153 + x_156 + x_163  = 1
 cover_lg_26:  y_26 + x_3 + x_11 + x_13 + x_18 + x_21 + x_22 + x_24 + x_28
               + x_48 + x_59 + x_63 + x_124 + x_125 + x_126 + x_127 + x_128
               + x_129 + x_130 + x_131 + x_132 + x_134 + x_135 + x_136 + x_138
               + x_139 + x_140 + x_141 + x_142 + x_143 + x_144 + x_145 + x_169
               + x_173 + x_174 + x_184 + x_188  = 1
 cover_lg_27:  y_27 + x_3 + x_11 + x_13 + x_18 + x_21 + x_22 + x_24 + x_28
               + x_48 + x_59 + x_63 + x_124 + x_125 + x_126 + x_127 + x_128
               + x_129 + x_130 + x_131 + x_132 + x_134 + x_135 + x_136 + x_138
               + x_139 + x_140 + x_141 + x_142 + x_143 + x_144 + x_145 + x_169
               + x_173 + x_174 + x_184 + x_188  = 1
 cover_lg_28:  y_28 + x_3 + x_10 + x_11 + x_13 + x_17 + x_18 + x_21 + x_22
               + x_23 + x_24 + x_25 + x_27 + x_28 + x_29 + x_42 + x_45 + x_47
               + x_48 + x_101 + x_102 + x_103 + x_104 + x_107 + x_108 + x_109
               + x_111 + x_112 + x_113 + x_115 + x_117 + x_119 + x_121 + x_123
               + x_146 + x_151 + x_154 + x_157 + x_160 + x_161 + x_162 + x_164
               + x_166  = 1
 cover_lg_29:  y_29 + x_3 + x_10 + x_11 + x_13 + x_17 + x_18 + x_21 + x_22
               + x_23 + x_24 + x_25 + x_27 + x_28 + x_29 + x_42 + x_45 + x_47
               + x_48 + x_101 + x_102 + x_103 + x_104 + x_107 + x_108 + x_109
               + x_111 + x_112 + x_113 + x_115 + x_117 + x_119 + x_121 + x_123
               + x_146 + x_151 + x_154 + x_157 + x_160 + x_161 + x_162 + x_164
               + x_166  = 1
 cover_lg_30:  y_30 + x_3 + x_8 + x_10 + x_11 + x_13 + x_17 + x_18 + x_21
               + x_23 + x_24 + x_25 + x_27 + x_28 + x_29 + x_42 + x_47 + x_48
               + x_78 + x_80 + x_82 + x_83 + x_84 + x_90 + x_94 + x_99 + x_101
               + x_102 + x_104 + x_107 + x_108 + x_112 + x_115 + x_121  = 1
 cover_lg_31:  y_31 + x_3 + x_8 + x_10 + x_11 + x_13 + x_17 + x_18 + x_21
               + x_23 + x_24 + x_25 + x_27 + x_28 + x_29 + x_78 + x_80 + x_82
               + x_83 + x_84 + x_90 + x_94 + x_99 + x_104 + x_115  = 1
 cover_lg_32:  y_32 + x_3 + x_8 + x_9 + x_13 + x_17 + x_18 + x_23 + x_24 + x_25
               + x_26 + x_27 + x_28 + x_29 + x_30 + x_53 + x_54 + x_58 + x_59
               + x_62 + x_63 + x_72 + x_74 + x_75  = 1
 cover_lg_33:  y_33 + x_3 + x_8 + x_9 + x_13 + x_17 + x_18 + x_23 + x_24 + x_25
               + x_26 + x_27 + x_28 + x_29 + x_30 + x_53 + x_54 + x_58 + x_59
               + x_62 + x_63 + x_72 + x_73 + x_74 + x_75  = 1
 cover_lg_34:  y_34 + x_15 + x_16 + x_38 + x_60 + x_61 + x_84 + x_85 + x_108
               + x_109 + x_131 + x_153 + x_174  = 1
 cover_lg_35:  y_35 + x_61 + x_62 + x_63 + x_64 + x_65 + x_74 + x_75 + x_95
               + x_98 + x_129 + x_130 + x_131 + x_140 + x_141 + x_144 + x_145
                = 1
 cover_lg_36:  y_36 + x_62 + x_63 + x_64 + x_65 + x_74 + x_75 + x_95 + x_98
               + x_100 + x_101 + x_127 + x_128 + x_129 + x_130 + x_131 + x_132
               + x_134 + x_135 + x_139 + x_140 + x_141 + x_143 + x_144 + x_145
                = 1
 cover_lg_37:  y_37 + x_40 + x_42 + x_45 + x_46 + x_50 + x_61 + x_65 + x_75
               + x_148 + x_150 + x_153 + x_156 + x_163  = 1
 cover_lg_38:  y_38 + x_32 + x_37 + x_50 + x_52 + x_61 + x_137 + x_148 + x_150
               + x_153 + x_156 + x_158 + x_163  = 1
 cover_lg_39:  y_39 + x_15 + x_33 + x_38 + x_41 + x_61 + x_63 + x_131 + x_135
               + x_137 + x_161 + x_163 + x_168 + x_170 + x_172 + x_175 + x_177
               + x_179 + x_180 + x_181 + x_182 + x_183 + x_185 + x_187  = 1
 cover_lg_40:  y_40 + x_15 + x_33 + x_38 + x_41 + x_54 + x_61 + x_63 + x_126
               + x_127 + x_131 + x_134 + x_135 + x_136 + x_137  = 1
 cover_lg_41:  y_41 + x_15 + x_38 + x_60 + x_61 + x_84 + x_85 + x_108 + x_109
               + x_131 + x_153 + x_174  = 1
 cover_lg_42:  y_42 + x_4 + x_35 + x_39 + x_40 + x_41 + x_42 + x_80 + x_86
               + x_87 + x_88 + x_89 + x_150 + x_154 + x_155 + x_156 + x_157
               + x_171 + x_175 + x_176 + x_177 + x_178  = 1
 cover_lg_43:  y_43 + x_4 + x_33 + x_35 + x_39 + x_40 + x_41 + x_42 + x_49
               + x_50 + x_102 + x_103 + x_116 + x_117 + x_120 + x_121 + x_148
               + x_149 + x_150 + x_154 + x_155 + x_156 + x_157 + x_160 + x_161
               + x_164 + x_165  = 1
 cover_lg_44:  y_44 + x_4 + x_16 + x_179 + x_183  = 1
 cover_lg_45:  y_45 + x_4 + x_146 + x_147 + x_168 + x_170 + x_171 + x_175
               + x_176 + x_177 + x_178 + x_179 + x_183 + x_185 + x_186  = 1
 cover_lg_46:  y_46 + x_4 + x_44 + x_76 + x_86 + x_87 + x_88 + x_89 + x_92
               + x_93 + x_95 + x_96 + x_97 + x_98 + x_124 + x_125 + x_129
               + x_130 + x_132 + x_138 + x_139 + x_140 + x_142 + x_143 + x_144
               + x_145  = 1
 cover_lg_47:  y_47 + x_4 + x_44 + x_114 + x_124 + x_125 + x_129 + x_130
               + x_132 + x_138 + x_139 + x_140 + x_142 + x_143 + x_144 + x_145
               + x_147 + x_152 + x_155 + x_159 + x_165 + x_167  = 1
 cover_lg_48:  y_48 + x_4 + x_44 + x_114 + x_124 + x_125 + x_129 + x_130
               + x_132 + x_138 + x_139 + x_140 + x_142 + x_143 + x_144 + x_145
               + x_147 + x_152 + x_155 + x_159 + x_165 + x_167  = 1
 cover_lg_49:  y_49 + x_4 + x_77 + x_83 + x_99 + x_124 + x_129 + x_132 + x_138
               + x_139 + x_140 + x_142 + x_143 + x_144 + x_147 + x_152 + x_155
               + x_165 + x_167 + x_168 + x_172 + x_175 + x_181 + x_183 + x_185
               + x_187  = 1
 cover_lg_50:  y_50 + x_5 + x_12 + x_17 + x_18 + x_19 + x_20 + x_104 + x_105
               + x_110 + x_111 + x_112 + x_113 + x_128 + x_132 + x_133 + x_134
               + x_135  = 1
 cover_lg_51:  y_51 + x_5 + x_12 + x_17 + x_18 + x_19 + x_20 + x_104 + x_105
               + x_110 + x_111 + x_112 + x_113 + x_128 + x_132 + x_133 + x_134
               + x_135  = 1
 cover_lg_52:  y_52 + x_5 + x_133 + x_151 + x_152 + x_154 + x_155 + x_157
               + x_158 + x_159 + x_160 + x_161 + x_162 + x_164 + x_165 + x_166
               + x_167  = 1
 cover_lg_53:  y_53 + x_5 + x_133 + x_151 + x_152 + x_154 + x_155 + x_157
               + x_158 + x_159 + x_160 + x_161 + x_162 + x_164 + x_165 + x_166
               + x_167  = 1
 cover_lg_54:  y_54 + x_5 + x_19 + x_30 + x_53 + x_55 + x_58 + x_60 + x_62
               + x_64 + x_66 + x_67 + x_68 + x_69 + x_70 + x_71 + x_72 + x_73
               + x_74 + x_133  = 1
 cover_lg_55:  y_55 + x_5 + x_19 + x_30 + x_53 + x_55 + x_58 + x_60 + x_62
               + x_64 + x_66 + x_67 + x_68 + x_69 + x_70 + x_71 + x_72 + x_73
               + x_74 + x_133  = 1
 cover_lg_56:  y_56 + x_5 + x_9 + x_19 + x_22 + x_30 + x_73 + x_77 + x_79
               + x_85 + x_91  = 1
 cover_lg_57:  y_57 + x_5 + x_9 + x_19 + x_22 + x_30 + x_77 + x_79 + x_85
               + x_91  = 1
 cover_lg_58:  y_58 + x_5 + x_19 + x_41 + x_64 + x_65 + x_112 + x_113 + x_134
               + x_135 + x_156 + x_177  = 1
 cover_lg_59:  y_59 + x_21 + x_22 + x_43 + x_44 + x_66 + x_67 + x_90 + x_91
               + x_114 + x_115 + x_136 + x_137 + x_158 + x_159 + x_179 + x_180
                = 1
 cover_lg_60:  y_60 + x_14 + x_15 + x_25 + x_26 + x_33 + x_35 + x_36 + x_37
               + x_38 + x_39 + x_41 + x_43 + x_44 + x_47 + x_48 + x_49 + x_51
               + x_52 + x_55 + x_56 + x_58 + x_59 + x_60 + x_68 + x_69 + x_70
               + x_71 + x_72 + x_73 + x_106 + x_107 + x_108 + x_109 + x_118
               + x_119 + x_122 + x_123  = 1
 cover_lg_61:  y_61 + x_14 + x_15 + x_25 + x_26 + x_33 + x_35 + x_36 + x_37
               + x_38 + x_39 + x_41 + x_43 + x_44 + x_47 + x_48 + x_49 + x_51
               + x_52 + x_55 + x_56 + x_58 + x_59 + x_60 + x_68 + x_69 + x_70
               + x_71 + x_72 + x_73 + x_106 + x_107 + x_108 + x_109 + x_118
               + x_119 + x_122 + x_123  = 1
 cover_lg_62:  y_62 + x_100 + x_101 + x_102 + x_103 + x_104 + x_105 + x_106
               + x_107 + x_108 + x_109 + x_110 + x_111 + x_112 + x_113 + x_114
               + x_116 + x_117 + x_118 + x_119 + x_120 + x_121 + x_122 + x_123
               + x_137  = 1
 cover_lg_63:  y_63 + x_40 + x_42 + x_45 + x_46 + x_65 + x_75 + x_100 + x_101
               + x_102 + x_103 + x_104 + x_105 + x_106 + x_107 + x_108 + x_109
               + x_110 + x_111 + x_112 + x_113 + x_114 + x_116 + x_117 + x_118
               + x_119 + x_120 + x_121 + x_122 + x_123  = 1
 cover_lg_64:  y_64 + x_40 + x_46 + x_54 + x_59 + x_65 + x_75 + x_100 + x_105
               + x_106 + x_110 + x_114 + x_116 + x_118 + x_120 + x_122 + x_126
               + x_127 + x_134 + x_136 + x_147 + x_152 + x_155 + x_159 + x_165
               + x_167 + x_169 + x_173 + x_174 + x_184 + x_188  = 1
 cover_lg_65:  y_65 + x_40 + x_46 + x_57 + x_59 + x_65 + x_75 + x_76 + x_86
               + x_87 + x_88 + x_89 + x_92 + x_93 + x_95 + x_96 + x_97 + x_98
               + x_100 + x_105 + x_106 + x_110 + x_116 + x_118 + x_120 + x_122
               + x_169 + x_170 + x_173 + x_174 + x_177 + x_182 + x_184 + x_188
                = 1
 cover_lg_66:  y_66 + x_21 + x_22 + x_43 + x_66 + x_67 + x_77 + x_83 + x_90
               + x_91 + x_99 + x_115 + x_136 + x_137 + x_158  = 1
 cover_lg_67:  y_67  = 1
 cover_lg_68:  y_68  = 1
 cover_lg_69:  y_69 + x_10 + x_17 + x_19 + x_23 + x_25 + x_27 + x_29 + x_30
               + x_33 + x_35 + x_36 + x_37 + x_38 + x_39 + x_41 + x_43 + x_44
               + x_47 + x_49 + x_51 + x_52 + x_55 + x_56 + x_58 + x_60 + x_62
               + x_64 + x_66 + x_68 + x_69 + x_70 + x_71 + x_72 + x_73 + x_74
               + x_81 + x_87 + x_88 + x_92 + x_95 + x_97 + x_98  = 1
 cover_lg_70:  y_70 + x_10 + x_17 + x_19 + x_23 + x_25 + x_27 + x_29 + x_30
               + x_33 + x_35 + x_36 + x_37 + x_38 + x_39 + x_41 + x_43 + x_44
               + x_47 + x_49 + x_51 + x_52 + x_55 + x_56 + x_58 + x_60 + x_62
               + x_64 + x_66 + x_68 + x_69 + x_70 + x_71 + x_72 + x_73 + x_74
               + x_81 + x_87 + x_88 + x_92 + x_95 + x_97 + x_98  = 1
 cover_lg_71:  y_71 + x_56 + x_81  = 1
 cover_lg_72:  y_72 + x_56 + x_81  = 1
 cover_lg_73:  y_73 + x_14 + x_31 + x_32 + x_36 + x_37 + x_39 + x_40 + x_49
               + x_50 + x_51 + x_52 + x_76 + x_82 + x_86 + x_87 + x_96 + x_97
               + x_98 + x_100 + x_106 + x_110 + x_120 + x_122 + x_169 + x_173
               + x_176 + x_186 + x_188  = 1
 cover_lg_74:  y_74 + x_14 + x_31 + x_32 + x_36 + x_37 + x_39 + x_40 + x_49
               + x_50 + x_51 + x_52 + x_76 + x_82 + x_86 + x_87 + x_96 + x_97
               + x_98 + x_100 + x_106 + x_110 + x_120 + x_122 + x_169 + x_173
               + x_176 + x_186 + x_188  = 1
 cover_lg_75:  y_75 + x_6 + x_34 + x_45 + x_46 + x_181 + x_182  = 1
 cover_lg_76:  y_76 + x_6 + x_34 + x_45 + x_46 + x_181 + x_182  = 1
 cover_lg_77:  y_77 + x_6 + x_34 + x_45 + x_46 + x_181 + x_182  = 1
 cover_lg_78:  y_78 + x_6 + x_34 + x_45 + x_46 + x_181 + x_182  = 1
 cover_lg_79:  y_79 + x_6 + x_34 + x_149  = 1
 cover_lg_80:  y_80 + x_6  = 1
 cover_lg_81:  y_81 + x_6 + x_20 + x_45 + x_53 + x_55 + x_58 + x_60 + x_62
               + x_64 + x_66 + x_67 + x_68 + x_70 + x_72 + x_74 + x_88 + x_89
               + x_103 + x_109 + x_111 + x_113 + x_123 + x_157 + x_178  = 1
 cover_lg_82:  y_82 + x_6 + x_45 + x_47 + x_48 + x_53 + x_55 + x_58 + x_60
               + x_62 + x_64 + x_66 + x_67 + x_68 + x_70 + x_72 + x_74 + x_101
               + x_102 + x_103 + x_107 + x_108 + x_109 + x_111 + x_112 + x_113
               + x_121 + x_123  = 1
 cover_lg_83:  y_83 + x_6 + x_23 + x_24 + x_25 + x_26 + x_45 + x_47 + x_48
               + x_68 + x_70 + x_138 + x_139 + x_140 + x_160 + x_161 + x_162
               + x_163 + x_181 + x_182 + x_183 + x_184  = 1
 cover_lg_84:  y_84 + x_25 + x_26 + x_47 + x_48 + x_70 + x_71 + x_94 + x_95
               + x_118 + x_119 + x_140 + x_141 + x_162 + x_163 + x_183 + x_184
                = 1
 cover_lg_85:  y_85 + x_187 + x_188  = 1
 cover_lg_86:  y_86 + x_187 + x_188  = 1
 cover_lg_87:  y_87  = 1
 cover_lg_88:  y_88  = 1
 cover_lg_89:  y_89 + x_46 + x_69 + x_71 + x_92 + x_93 + x_94 + x_95 + x_116
               + x_117 + x_118 + x_119 + x_141  = 1
 cover_lg_90:  y_90 + x_7 + x_168 + x_170 + x_171 + x_175 + x_176 + x_177
               + x_178 + x_185 + x_186  = 1
 cover_lg_91:  y_91 + x_7  = 1
 cover_lg_92:  y_92 + x_7  = 1
 cover_lg_93:  y_93 + x_7  = 1
 cover_lg_94:  y_94 + x_7 + x_125 + x_130 + x_145 + x_161 + x_163  = 1
 select_ac_0:  x_0 + x_8 + x_9 + x_31 + x_32 + x_53 + x_54 + x_76 + x_77
               + x_100 + x_101 + x_124 + x_125 + x_146 + x_147 + x_168 + x_169
               <= 1
 select_ac_1:  x_1 + x_10 + x_11 + x_33 + x_34 + x_55 + x_56 + x_78 + x_79
               + x_102 + x_103 + x_126 + x_127 + x_148 + x_149 + x_170 <= 1
 select_ac_2:  x_2 + x_12 + x_35 + x_57 + x_80 + x_81 + x_104 + x_105 + x_128
               + x_150 + x_171 <= 1
 select_ac_3:  x_3 + x_13 + x_14 + x_36 + x_37 + x_58 + x_59 + x_82 + x_83
               + x_106 + x_107 + x_129 + x_130 + x_151 + x_152 + x_172 + x_173
               <= 1
 select_ac_4:  x_15 + x_16 + x_38 + x_60 + x_61 + x_84 + x_85 + x_108 + x_109
               + x_131 + x_153 + x_174 <= 1
 select_ac_5:  x_4 + x_17 + x_18 + x_39 + x_40 + x_62 + x_63 + x_86 + x_87
               + x_110 + x_111 + x_132 + x_133 + x_154 + x_155 + x_175 + x_176
               <= 1
 select_ac_6:  x_5 + x_19 + x_20 + x_41 + x_42 + x_64 + x_65 + x_88 + x_89
               + x_112 + x_113 + x_134 + x_135 + x_156 + x_157 + x_177 + x_178
               <= 1
 select_ac_7:  x_21 + x_22 + x_43 + x_44 + x_66 + x_67 + x_90 + x_91 + x_114
               + x_115 + x_136 + x_137 + x_158 + x_159 + x_179 + x_180 <= 1
 select_ac_8:  x_6 + x_23 + x_24 + x_45 + x_46 + x_68 + x_69 + x_92 + x_93
               + x_116 + x_117 + x_138 + x_139 + x_160 + x_161 + x_181 + x_182
               <= 1
 select_ac_9:  x_25 + x_26 + x_47 + x_48 + x_70 + x_71 + x_94 + x_95 + x_118
               + x_119 + x_140 + x_141 + x_162 + x_163 + x_183 + x_184 <= 1
 select_ac_10: x_7 + x_27 + x_28 + x_49 + x_50 + x_72 + x_73 + x_96 + x_97
               + x_120 + x_121 + x_142 + x_143 + x_164 + x_165 + x_185 + x_186
               <= 1
 select_ac_11: x_29 + x_30 + x_51 + x_52 + x_74 + x_75 + x_98 + x_99 + x_122
               + x_123 + x_144 + x_145 + x_166 + x_167 + x_187 + x_188 <= 1
Bounds
 0 <= y_0 <= 1
 0 <= y_1 <= 1
 0 <= y_2 <= 1
 0 <= y_3 <= 1
 0 <= y_4 <= 1
 0 <= y_5 <= 1
 0 <= y_6 <= 1
 0 <= y_7 <= 1
 0 <= y_8 <= 1
 0 <= y_9 <= 1
 0 <= y_10 <= 1
 0 <= y_11 <= 1
 0 <= y_12 <= 1
 0 <= y_13 <= 1
 0 <= y_14 <= 1
 0 <= y_15 <= 1
 0 <= y_16 <= 1
 0 <= y_17 <= 1
 0 <= y_18 <= 1
 0 <= y_19 <= 1
 0 <= y_20 <= 1
 0 <= y_21 <= 1
 0 <= y_22 <= 1
 0 <= y_23 <= 1
 0 <= y_24 <= 1
 0 <= y_25 <= 1
 0 <= y_26 <= 1
 0 <= y_27 <= 1
 0 <= y_28 <= 1
 0 <= y_29 <= 1
 0 <= y_30 <= 1
 0 <= y_31 <= 1
 0 <= y_32 <= 1
 0 <= y_33 <= 1
 0 <= y_34 <= 1
 0 <= y_35 <= 1
 0 <= y_36 <= 1
 0 <= y_37 <= 1
 0 <= y_38 <= 1
 0 <= y_39 <= 1
 0 <= y_40 <= 1
 0 <= y_41 <= 1
 0 <= y_42 <= 1
 0 <= y_43 <= 1
 0 <= y_44 <= 1
 0 <= y_45 <= 1
 0 <= y_46 <= 1
 0 <= y_47 <= 1
 0 <= y_48 <= 1
 0 <= y_49 <= 1
 0 <= y_50 <= 1
 0 <= y_51 <= 1
 0 <= y_52 <= 1
 0 <= y_53 <= 1
 0 <= y_54 <= 1
 0 <= y_55 <= 1
 0 <= y_56 <= 1
 0 <= y_57 <= 1
 0 <= y_58 <= 1
 0 <= y_59 <= 1
 0 <= y_60 <= 1
 0 <= y_61 <= 1
 0 <= y_62 <= 1
 0 <= y_63 <= 1
 0 <= y_64 <= 1
 0 <= y_65 <= 1
 0 <= y_66 <= 1
 0 <= y_67 <= 1
 0 <= y_68 <= 1
 0 <= y_69 <= 1
 0 <= y_70 <= 1
 0 <= y_71 <= 1
 0 <= y_72 <= 1
 0 <= y_73 <= 1
 0 <= y_74 <= 1
 0 <= y_75 <= 1
 0 <= y_76 <= 1
 0 <= y_77 <= 1
 0 <= y_78 <= 1
 0 <= y_79 <= 1
 0 <= y_80 <= 1
 0 <= y_81 <= 1
 0 <= y_82 <= 1
 0 <= y_83 <= 1
 0 <= y_84 <= 1
 0 <= y_85 <= 1
 0 <= y_86 <= 1
 0 <= y_87 <= 1
 0 <= y_88 <= 1
 0 <= y_89 <= 1
 0 <= y_90 <= 1
 0 <= y_91 <= 1
 0 <= y_92 <= 1
 0 <= y_93 <= 1
 0 <= y_94 <= 1
 0 <= x_0 <= 1
 0 <= x_1 <= 1
 0 <= x_2 <= 1
 0 <= x_3 <= 1
 0 <= x_4 <= 1
 0 <= x_5 <= 1
 0 <= x_6 <= 1
 0 <= x_7 <= 1
 0 <= x_8 <= 1
 0 <= x_9 <= 1
 0 <= x_10 <= 1
 0 <= x_11 <= 1
 0 <= x_12 <= 1
 0 <= x_13 <= 1
 0 <= x_14 <= 1
 0 <= x_15 <= 1
 0 <= x_16 <= 1
 0 <= x_17 <= 1
 0 <= x_18 <= 1
 0 <= x_19 <= 1
 0 <= x_20 <= 1
 0 <= x_21 <= 1
 0 <= x_22 <= 1
 0 <= x_23 <= 1
 0 <= x_24 <= 1
 0 <= x_25 <= 1
 0 <= x_26 <= 1
 0 <= x_27 <= 1
 0 <= x_28 <= 1
 0 <= x_29 <= 1
 0 <= x_30 <= 1
 0 <= x_31 <= 1
 0 <= x_32 <= 1
 0 <= x_33 <= 1
 0 <= x_34 <= 1
 0 <= x_35 <= 1
 0 <= x_36 <= 1
 0 <= x_37 <= 1
 0 <= x_38 <= 1
 0 <= x_39 <= 1
 0 <= x_40 <= 1
 0 <= x_41 <= 1
 0 <= x_42 <= 1
 0 <= x_43 <= 1
 0 <= x_44 <= 1
 0 <= x_45 <= 1
 0 <= x_46 <= 1
 0 <= x_47 <= 1
 0 <= x_48 <= 1
 0 <= x_49 <= 1
 0 <= x_50 <= 1
 0 <= x_51 <= 1
 0 <= x_52 <= 1
 0 <= x_53 <= 1
 0 <= x_54 <= 1
 0 <= x_55 <= 1
 0 <= x_56 <= 1
 0 <= x_57 <= 1
 0 <= x_58 <= 1
 0 <= x_59 <= 1
 0 <= x_60 <= 1
 0 <= x_61 <= 1
 0 <= x_62 <= 1
 0 <= x_63 <= 1
 0 <= x_64 <= 1
 0 <= x_65 <= 1
 0 <= x_66 <= 1
 0 <= x_67 <= 1
 0 <= x_68 <= 1
 0 <= x_69 <= 1
 0 <= x_70 <= 1
 0 <= x_71 <= 1
 0 <= x_72 <= 1
 0 <= x_73 <= 1
 0 <= x_74 <= 1
 0 <= x_75 <= 1
 0 <= x_76 <= 1
 0 <= x_77 <= 1
 0 <= x_78 <= 1
 0 <= x_79 <= 1
 0 <= x_80 <= 1
 0 <= x_81 <= 1
 0 <= x_82 <= 1
 0 <= x_83 <= 1
 0 <= x_84 <= 1
 0 <= x_85 <= 1
 0 <= x_86 <= 1
 0 <= x_87 <= 1
 0 <= x_88 <= 1
 0 <= x_89 <= 1
 0 <= x_90 <= 1
 0 <= x_91 <= 1
 0 <= x_92 <= 1
 0 <= x_93 <= 1
 0 <= x_94 <= 1
 0 <= x_95 <= 1
 0 <= x_96 <= 1
 0 <= x_97 <= 1
 0 <= x_98 <= 1
 0 <= x_99 <= 1
 0 <= x_100 <= 1
 0 <= x_101 <= 1
 0 <= x_102 <= 1
 0 <= x_103 <= 1
 0 <= x_104 <= 1
 0 <= x_105 <= 1
 0 <= x_106 <= 1
 0 <= x_107 <= 1
 0 <= x_108 <= 1
 0 <= x_109 <= 1
 0 <= x_110 <= 1
 0 <= x_111 <= 1
 0 <= x_112 <= 1
 0 <= x_113 <= 1
 0 <= x_114 <= 1
 0 <= x_115 <= 1
 0 <= x_116 <= 1
 0 <= x_117 <= 1
 0 <= x_118 <= 1
 0 <= x_119 <= 1
 0 <= x_120 <= 1
 0 <= x_121 <= 1
 0 <= x_122 <= 1
 0 <= x_123 <= 1
 0 <= x_124 <= 1
 0 <= x_125 <= 1
 0 <= x_126 <= 1
 0 <= x_127 <= 1
 0 <= x_128 <= 1
 0 <= x_129 <= 1
 0 <= x_130 <= 1
 0 <= x_131 <= 1
 0 <= x_132 <= 1
 0 <= x_133 <= 1
 0 <= x_134 <= 1
 0 <= x_135 <= 1
 0 <= x_136 <= 1
 0 <= x_137 <= 1
 0 <= x_138 <= 1
 0 <= x_139 <= 1
 0 <= x_140 <= 1
 0 <= x_141 <= 1
 0 <= x_142 <= 1
 0 <= x_143 <= 1
 0 <= x_144 <= 1
 0 <= x_145 <= 1
 0 <= x_146 <= 1
 0 <= x_147 <= 1
 0 <= x_148 <= 1
 0 <= x_149 <= 1
 0 <= x_150 <= 1
 0 <= x_151 <= 1
 0 <= x_152 <= 1
 0 <= x_153 <= 1
 0 <= x_154 <= 1
 0 <= x_155 <= 1
 0 <= x_156 <= 1
 0 <= x_157 <= 1
 0 <= x_158 <= 1
 0 <= x_159 <= 1
 0 <= x_160 <= 1
 0 <= x_161 <= 1
 0 <= x_162 <= 1
 0 <= x_163 <= 1
 0 <= x_164 <= 1
 0 <= x_165 <= 1
 0 <= x_166 <= 1
 0 <= x_167 <= 1
 0 <= x_168 <= 1
 0 <= x_169 <= 1
 0 <= x_170 <= 1
 0 <= x_171 <= 1
 0 <= x_172 <= 1
 0 <= x_173 <= 1
 0 <= x_174 <= 1
 0 <= x_175 <= 1
 0 <= x_176 <= 1
 0 <= x_177 <= 1
 0 <= x_178 <= 1
 0 <= x_179 <= 1
 0 <= x_180 <= 1
 0 <= x_181 <= 1
 0 <= x_182 <= 1
 0 <= x_183 <= 1
 0 <= x_184 <= 1
 0 <= x_185 <= 1
 0 <= x_186 <= 1
 0 <= x_187 <= 1
 0 <= x_188 <= 1
End
